c t pwmc
c file mc2022_track4_189.cnf
p cnf 190 1526
c p show 26 31 32 33 41 42 47 57 73 75 78 80 90 96 99 102 104 110 115 122 124 125 133 136 145 160 163 168 184 185 186 190 0
-1 0
-96 0
42 0
-137 0
-56 0
151 0
1 96 86 181 0
-1 96 -86 181 0
1 -96 86 -181 0
-1 -96 -86 -181 0
1 96 42 137 0
-1 96 -42 137 0
1 -96 42 -137 0
-1 -96 -42 -137 0
1 96 2 97 0
-1 96 -2 97 0
1 -96 2 -97 0
-1 -96 -2 -97 0
1 96 56 151 0
-1 96 -56 151 0
1 -96 56 -151 0
-1 -96 -56 -151 0
1 96 18 113 0
-1 96 -18 113 0
1 -96 18 -113 0
-1 -96 -18 -113 0
1 96 5 100 0
-1 96 -5 100 0
1 -96 5 -100 0
-1 -96 -5 -100 0
1 96 84 179 0
-1 96 -84 179 0
1 -96 84 -179 0
-1 -96 -84 -179 0
1 96 3 98 0
-1 96 -3 98 0
1 -96 3 -98 0
-1 -96 -3 -98 0
2 97 65 160 0
-2 97 -65 160 0
2 -97 65 -160 0
-2 -97 -65 -160 0
2 97 85 180 0
-2 97 -85 180 0
2 -97 85 -180 0
-2 -97 -85 -180 0
2 97 91 186 0
-2 97 -91 186 0
2 -97 91 -186 0
-2 -97 -91 -186 0
2 97 68 163 0
-2 97 -68 163 0
2 -97 68 -163 0
-2 -97 -68 -163 0
2 97 74 169 0
-2 97 -74 169 0
2 -97 74 -169 0
-2 -97 -74 -169 0
2 97 51 146 0
-2 97 -51 146 0
2 -97 51 -146 0
-2 -97 -51 -146 0
2 97 52 147 0
-2 97 -52 147 0
2 -97 52 -147 0
-2 -97 -52 -147 0
3 98 9 104 0
-3 98 -9 104 0
3 -98 9 -104 0
-3 -98 -9 -104 0
3 98 9 104 0
-3 98 -9 104 0
3 -98 9 -104 0
-3 -98 -9 -104 0
3 98 11 106 0
-3 98 -11 106 0
3 -98 11 -106 0
-3 -98 -11 -106 0
3 98 80 175 0
-3 98 -80 175 0
3 -98 80 -175 0
-3 -98 -80 -175 0
3 98 52 147 0
-3 98 -52 147 0
3 -98 52 -147 0
-3 -98 -52 -147 0
3 98 55 150 0
-3 98 -55 150 0
3 -98 55 -150 0
-3 -98 -55 -150 0
3 98 43 138 0
-3 98 -43 138 0
3 -98 43 -138 0
-3 -98 -43 -138 0
4 99 53 148 0
-4 99 -53 148 0
4 -99 53 -148 0
-4 -99 -53 -148 0
4 99 24 119 0
-4 99 -24 119 0
4 -99 24 -119 0
-4 -99 -24 -119 0
4 99 61 156 0
-4 99 -61 156 0
4 -99 61 -156 0
-4 -99 -61 -156 0
4 99 69 164 0
-4 99 -69 164 0
4 -99 69 -164 0
-4 -99 -69 -164 0
4 99 25 120 0
-4 99 -25 120 0
4 -99 25 -120 0
-4 -99 -25 -120 0
4 99 7 102 0
-4 99 -7 102 0
4 -99 7 -102 0
-4 -99 -7 -102 0
4 99 44 139 0
-4 99 -44 139 0
4 -99 44 -139 0
-4 -99 -44 -139 0
4 99 55 150 0
-4 99 -55 150 0
4 -99 55 -150 0
-4 -99 -55 -150 0
5 100 25 120 0
-5 100 -25 120 0
5 -100 25 -120 0
-5 -100 -25 -120 0
5 100 66 161 0
-5 100 -66 161 0
5 -100 66 -161 0
-5 -100 -66 -161 0
5 100 21 116 0
-5 100 -21 116 0
5 -100 21 -116 0
-5 -100 -21 -116 0
5 100 91 186 0
-5 100 -91 186 0
5 -100 91 -186 0
-5 -100 -91 -186 0
5 100 9 104 0
-5 100 -9 104 0
5 -100 9 -104 0
-5 -100 -9 -104 0
5 100 65 160 0
-5 100 -65 160 0
5 -100 65 -160 0
-5 -100 -65 -160 0
5 100 35 130 0
-5 100 -35 130 0
5 -100 35 -130 0
-5 -100 -35 -130 0
6 101 41 136 0
-6 101 -41 136 0
6 -101 41 -136 0
-6 -101 -41 -136 0
6 101 48 143 0
-6 101 -48 143 0
6 -101 48 -143 0
-6 -101 -48 -143 0
6 101 68 163 0
-6 101 -68 163 0
6 -101 68 -163 0
-6 -101 -68 -163 0
6 101 52 147 0
-6 101 -52 147 0
6 -101 52 -147 0
-6 -101 -52 -147 0
6 101 57 152 0
-6 101 -57 152 0
6 -101 57 -152 0
-6 -101 -57 -152 0
6 101 24 119 0
-6 101 -24 119 0
6 -101 24 -119 0
-6 -101 -24 -119 0
6 101 75 170 0
-6 101 -75 170 0
6 -101 75 -170 0
-6 -101 -75 -170 0
6 101 25 120 0
-6 101 -25 120 0
6 -101 25 -120 0
-6 -101 -25 -120 0
7 102 80 175 0
-7 102 -80 175 0
7 -102 80 -175 0
-7 -102 -80 -175 0
7 102 63 158 0
-7 102 -63 158 0
7 -102 63 -158 0
-7 -102 -63 -158 0
7 102 54 149 0
-7 102 -54 149 0
7 -102 54 -149 0
-7 -102 -54 -149 0
7 102 32 127 0
-7 102 -32 127 0
7 -102 32 -127 0
-7 -102 -32 -127 0
7 102 32 127 0
-7 102 -32 127 0
7 -102 32 -127 0
-7 -102 -32 -127 0
7 102 83 178 0
-7 102 -83 178 0
7 -102 83 -178 0
-7 -102 -83 -178 0
7 102 92 187 0
-7 102 -92 187 0
7 -102 92 -187 0
-7 -102 -92 -187 0
8 103 69 164 0
-8 103 -69 164 0
8 -103 69 -164 0
-8 -103 -69 -164 0
8 103 77 172 0
-8 103 -77 172 0
8 -103 77 -172 0
-8 -103 -77 -172 0
8 103 54 149 0
-8 103 -54 149 0
8 -103 54 -149 0
-8 -103 -54 -149 0
8 103 13 108 0
-8 103 -13 108 0
8 -103 13 -108 0
-8 -103 -13 -108 0
8 103 55 150 0
-8 103 -55 150 0
8 -103 55 -150 0
-8 -103 -55 -150 0
8 103 57 152 0
-8 103 -57 152 0
8 -103 57 -152 0
-8 -103 -57 -152 0
8 103 70 165 0
-8 103 -70 165 0
8 -103 70 -165 0
-8 -103 -70 -165 0
8 103 33 128 0
-8 103 -33 128 0
8 -103 33 -128 0
-8 -103 -33 -128 0
9 104 12 107 0
-9 104 -12 107 0
9 -104 12 -107 0
-9 -104 -12 -107 0
9 104 17 112 0
-9 104 -17 112 0
9 -104 17 -112 0
-9 -104 -17 -112 0
9 104 79 174 0
-9 104 -79 174 0
9 -104 79 -174 0
-9 -104 -79 -174 0
9 104 74 169 0
-9 104 -74 169 0
9 -104 74 -169 0
-9 -104 -74 -169 0
9 104 18 113 0
-9 104 -18 113 0
9 -104 18 -113 0
-9 -104 -18 -113 0
10 105 14 109 0
-10 105 -14 109 0
10 -105 14 -109 0
-10 -105 -14 -109 0
10 105 37 132 0
-10 105 -37 132 0
10 -105 37 -132 0
-10 -105 -37 -132 0
10 105 70 165 0
-10 105 -70 165 0
10 -105 70 -165 0
-10 -105 -70 -165 0
10 105 12 107 0
-10 105 -12 107 0
10 -105 12 -107 0
-10 -105 -12 -107 0
10 105 32 127 0
-10 105 -32 127 0
10 -105 32 -127 0
-10 -105 -32 -127 0
10 105 25 120 0
-10 105 -25 120 0
10 -105 25 -120 0
-10 -105 -25 -120 0
10 105 72 167 0
-10 105 -72 167 0
10 -105 72 -167 0
-10 -105 -72 -167 0
10 105 16 111 0
-10 105 -16 111 0
10 -105 16 -111 0
-10 -105 -16 -111 0
11 106 33 128 0
-11 106 -33 128 0
11 -106 33 -128 0
-11 -106 -33 -128 0
11 106 37 132 0
-11 106 -37 132 0
11 -106 37 -132 0
-11 -106 -37 -132 0
11 106 77 172 0
-11 106 -77 172 0
11 -106 77 -172 0
-11 -106 -77 -172 0
11 106 38 133 0
-11 106 -38 133 0
11 -106 38 -133 0
-11 -106 -38 -133 0
11 106 63 158 0
-11 106 -63 158 0
11 -106 63 -158 0
-11 -106 -63 -158 0
11 106 90 185 0
-11 106 -90 185 0
11 -106 90 -185 0
-11 -106 -90 -185 0
11 106 92 187 0
-11 106 -92 187 0
11 -106 92 -187 0
-11 -106 -92 -187 0
12 107 28 123 0
-12 107 -28 123 0
12 -107 28 -123 0
-12 -107 -28 -123 0
12 107 85 180 0
-12 107 -85 180 0
12 -107 85 -180 0
-12 -107 -85 -180 0
12 107 36 131 0
-12 107 -36 131 0
12 -107 36 -131 0
-12 -107 -36 -131 0
12 107 15 110 0
-12 107 -15 110 0
12 -107 15 -110 0
-12 -107 -15 -110 0
12 107 43 138 0
-12 107 -43 138 0
12 -107 43 -138 0
-12 -107 -43 -138 0
12 107 29 124 0
-12 107 -29 124 0
12 -107 29 -124 0
-12 -107 -29 -124 0
13 108 42 137 0
-13 108 -42 137 0
13 -108 42 -137 0
-13 -108 -42 -137 0
13 108 59 154 0
-13 108 -59 154 0
13 -108 59 -154 0
-13 -108 -59 -154 0
13 108 90 185 0
-13 108 -90 185 0
13 -108 90 -185 0
-13 -108 -90 -185 0
13 108 67 162 0
-13 108 -67 162 0
13 -108 67 -162 0
-13 -108 -67 -162 0
13 108 85 180 0
-13 108 -85 180 0
13 -108 85 -180 0
-13 -108 -85 -180 0
13 108 91 186 0
-13 108 -91 186 0
13 -108 91 -186 0
-13 -108 -91 -186 0
13 108 57 152 0
-13 108 -57 152 0
13 -108 57 -152 0
-13 -108 -57 -152 0
14 109 27 122 0
-14 109 -27 122 0
14 -109 27 -122 0
-14 -109 -27 -122 0
14 109 38 133 0
-14 109 -38 133 0
14 -109 38 -133 0
-14 -109 -38 -133 0
14 109 18 113 0
-14 109 -18 113 0
14 -109 18 -113 0
-14 -109 -18 -113 0
14 109 35 130 0
-14 109 -35 130 0
14 -109 35 -130 0
-14 -109 -35 -130 0
14 109 15 110 0
-14 109 -15 110 0
14 -109 15 -110 0
-14 -109 -15 -110 0
14 109 21 116 0
-14 109 -21 116 0
14 -109 21 -116 0
-14 -109 -21 -116 0
14 109 50 145 0
-14 109 -50 145 0
14 -109 50 -145 0
-14 -109 -50 -145 0
15 110 63 158 0
-15 110 -63 158 0
15 -110 63 -158 0
-15 -110 -63 -158 0
15 110 60 155 0
-15 110 -60 155 0
15 -110 60 -155 0
-15 -110 -60 -155 0
15 110 27 122 0
-15 110 -27 122 0
15 -110 27 -122 0
-15 -110 -27 -122 0
15 110 20 115 0
-15 110 -20 115 0
15 -110 20 -115 0
-15 -110 -20 -115 0
15 110 17 112 0
-15 110 -17 112 0
15 -110 17 -112 0
-15 -110 -17 -112 0
15 110 76 171 0
-15 110 -76 171 0
15 -110 76 -171 0
-15 -110 -76 -171 0
16 111 18 113 0
-16 111 -18 113 0
16 -111 18 -113 0
-16 -111 -18 -113 0
16 111 44 139 0
-16 111 -44 139 0
16 -111 44 -139 0
-16 -111 -44 -139 0
16 111 68 163 0
-16 111 -68 163 0
16 -111 68 -163 0
-16 -111 -68 -163 0
16 111 92 187 0
-16 111 -92 187 0
16 -111 92 -187 0
-16 -111 -92 -187 0
16 111 39 134 0
-16 111 -39 134 0
16 -111 39 -134 0
-16 -111 -39 -134 0
16 111 60 155 0
-16 111 -60 155 0
16 -111 60 -155 0
-16 -111 -60 -155 0
16 111 61 156 0
-16 111 -61 156 0
16 -111 61 -156 0
-16 -111 -61 -156 0
17 112 28 123 0
-17 112 -28 123 0
17 -112 28 -123 0
-17 -112 -28 -123 0
17 112 83 178 0
-17 112 -83 178 0
17 -112 83 -178 0
-17 -112 -83 -178 0
17 112 79 174 0
-17 112 -79 174 0
17 -112 79 -174 0
-17 -112 -79 -174 0
17 112 81 176 0
-17 112 -81 176 0
17 -112 81 -176 0
-17 -112 -81 -176 0
17 112 88 183 0
-17 112 -88 183 0
17 -112 88 -183 0
-17 -112 -88 -183 0
17 112 23 118 0
-17 112 -23 118 0
17 -112 23 -118 0
-17 -112 -23 -118 0
18 113 23 118 0
-18 113 -23 118 0
18 -113 23 -118 0
-18 -113 -23 -118 0
18 113 61 156 0
-18 113 -61 156 0
18 -113 61 -156 0
-18 -113 -61 -156 0
18 113 36 131 0
-18 113 -36 131 0
18 -113 36 -131 0
-18 -113 -36 -131 0
18 113 79 174 0
-18 113 -79 174 0
18 -113 79 -174 0
-18 -113 -79 -174 0
19 114 30 125 0
-19 114 -30 125 0
19 -114 30 -125 0
-19 -114 -30 -125 0
19 114 75 170 0
-19 114 -75 170 0
19 -114 75 -170 0
-19 -114 -75 -170 0
19 114 46 141 0
-19 114 -46 141 0
19 -114 46 -141 0
-19 -114 -46 -141 0
19 114 53 148 0
-19 114 -53 148 0
19 -114 53 -148 0
-19 -114 -53 -148 0
19 114 37 132 0
-19 114 -37 132 0
19 -114 37 -132 0
-19 -114 -37 -132 0
19 114 76 171 0
-19 114 -76 171 0
19 -114 76 -171 0
-19 -114 -76 -171 0
19 114 71 166 0
-19 114 -71 166 0
19 -114 71 -166 0
-19 -114 -71 -166 0
19 114 90 185 0
-19 114 -90 185 0
19 -114 90 -185 0
-19 -114 -90 -185 0
20 115 82 177 0
-20 115 -82 177 0
20 -115 82 -177 0
-20 -115 -82 -177 0
20 115 58 153 0
-20 115 -58 153 0
20 -115 58 -153 0
-20 -115 -58 -153 0
20 115 34 129 0
-20 115 -34 129 0
20 -115 34 -129 0
-20 -115 -34 -129 0
20 115 90 185 0
-20 115 -90 185 0
20 -115 90 -185 0
-20 -115 -90 -185 0
20 115 87 182 0
-20 115 -87 182 0
20 -115 87 -182 0
-20 -115 -87 -182 0
20 115 89 184 0
-20 115 -89 184 0
20 -115 89 -184 0
-20 -115 -89 -184 0
20 115 93 188 0
-20 115 -93 188 0
20 -115 93 -188 0
-20 -115 -93 -188 0
21 116 64 159 0
-21 116 -64 159 0
21 -116 64 -159 0
-21 -116 -64 -159 0
21 116 27 122 0
-21 116 -27 122 0
21 -116 27 -122 0
-21 -116 -27 -122 0
21 116 34 129 0
-21 116 -34 129 0
21 -116 34 -129 0
-21 -116 -34 -129 0
21 116 86 181 0
-21 116 -86 181 0
21 -116 86 -181 0
-21 -116 -86 -181 0
21 116 47 142 0
-21 116 -47 142 0
21 -116 47 -142 0
-21 -116 -47 -142 0
21 116 30 125 0
-21 116 -30 125 0
21 -116 30 -125 0
-21 -116 -30 -125 0
22 117 75 170 0
-22 117 -75 170 0
22 -117 75 -170 0
-22 -117 -75 -170 0
22 117 95 190 0
-22 117 -95 190 0
22 -117 95 -190 0
-22 -117 -95 -190 0
22 117 63 158 0
-22 117 -63 158 0
22 -117 63 -158 0
-22 -117 -63 -158 0
22 117 52 147 0
-22 117 -52 147 0
22 -117 52 -147 0
-22 -117 -52 -147 0
22 117 30 125 0
-22 117 -30 125 0
22 -117 30 -125 0
-22 -117 -30 -125 0
22 117 87 182 0
-22 117 -87 182 0
22 -117 87 -182 0
-22 -117 -87 -182 0
22 117 84 179 0
-22 117 -84 179 0
22 -117 84 -179 0
-22 -117 -84 -179 0
22 117 39 134 0
-22 117 -39 134 0
22 -117 39 -134 0
-22 -117 -39 -134 0
23 118 33 128 0
-23 118 -33 128 0
23 -118 33 -128 0
-23 -118 -33 -128 0
23 118 56 151 0
-23 118 -56 151 0
23 -118 56 -151 0
-23 -118 -56 -151 0
23 118 62 157 0
-23 118 -62 157 0
23 -118 62 -157 0
-23 -118 -62 -157 0
23 118 65 160 0
-23 118 -65 160 0
23 -118 65 -160 0
-23 -118 -65 -160 0
23 118 81 176 0
-23 118 -81 176 0
23 -118 81 -176 0
-23 -118 -81 -176 0
23 118 82 177 0
-23 118 -82 177 0
23 -118 82 -177 0
-23 -118 -82 -177 0
24 119 76 171 0
-24 119 -76 171 0
24 -119 76 -171 0
-24 -119 -76 -171 0
24 119 53 148 0
-24 119 -53 148 0
24 -119 53 -148 0
-24 -119 -53 -148 0
24 119 89 184 0
-24 119 -89 184 0
24 -119 89 -184 0
-24 -119 -89 -184 0
24 119 51 146 0
-24 119 -51 146 0
24 -119 51 -146 0
-24 -119 -51 -146 0
24 119 30 125 0
-24 119 -30 125 0
24 -119 30 -125 0
-24 -119 -30 -125 0
24 119 93 188 0
-24 119 -93 188 0
24 -119 93 -188 0
-24 -119 -93 -188 0
25 120 43 138 0
-25 120 -43 138 0
25 -120 43 -138 0
-25 -120 -43 -138 0
25 120 45 140 0
-25 120 -45 140 0
25 -120 45 -140 0
-25 -120 -45 -140 0
25 120 47 142 0
-25 120 -47 142 0
25 -120 47 -142 0
-25 -120 -47 -142 0
25 120 91 186 0
-25 120 -91 186 0
25 -120 91 -186 0
-25 -120 -91 -186 0
26 121 41 136 0
-26 121 -41 136 0
26 -121 41 -136 0
-26 -121 -41 -136 0
26 121 89 184 0
-26 121 -89 184 0
26 -121 89 -184 0
-26 -121 -89 -184 0
26 121 64 159 0
-26 121 -64 159 0
26 -121 64 -159 0
-26 -121 -64 -159 0
26 121 43 138 0
-26 121 -43 138 0
26 -121 43 -138 0
-26 -121 -43 -138 0
26 121 81 176 0
-26 121 -81 176 0
26 -121 81 -176 0
-26 -121 -81 -176 0
26 121 72 167 0
-26 121 -72 167 0
26 -121 72 -167 0
-26 -121 -72 -167 0
26 121 35 130 0
-26 121 -35 130 0
26 -121 35 -130 0
-26 -121 -35 -130 0
26 121 91 186 0
-26 121 -91 186 0
26 -121 91 -186 0
-26 -121 -91 -186 0
27 122 79 174 0
-27 122 -79 174 0
27 -122 79 -174 0
-27 -122 -79 -174 0
27 122 33 128 0
-27 122 -33 128 0
27 -122 33 -128 0
-27 -122 -33 -128 0
27 122 69 164 0
-27 122 -69 164 0
27 -122 69 -164 0
-27 -122 -69 -164 0
27 122 36 131 0
-27 122 -36 131 0
27 -122 36 -131 0
-27 -122 -36 -131 0
27 122 89 184 0
-27 122 -89 184 0
27 -122 89 -184 0
-27 -122 -89 -184 0
28 123 87 182 0
-28 123 -87 182 0
28 -123 87 -182 0
-28 -123 -87 -182 0
28 123 84 179 0
-28 123 -84 179 0
28 -123 84 -179 0
-28 -123 -84 -179 0
28 123 85 180 0
-28 123 -85 180 0
28 -123 85 -180 0
-28 -123 -85 -180 0
28 123 75 170 0
-28 123 -75 170 0
28 -123 75 -170 0
-28 -123 -75 -170 0
28 123 44 139 0
-28 123 -44 139 0
28 -123 44 -139 0
-28 -123 -44 -139 0
28 123 77 172 0
-28 123 -77 172 0
28 -123 77 -172 0
-28 -123 -77 -172 0
29 124 78 173 0
-29 124 -78 173 0
29 -124 78 -173 0
-29 -124 -78 -173 0
29 124 68 163 0
-29 124 -68 163 0
29 -124 68 -163 0
-29 -124 -68 -163 0
29 124 77 172 0
-29 124 -77 172 0
29 -124 77 -172 0
-29 -124 -77 -172 0
29 124 34 129 0
-29 124 -34 129 0
29 -124 34 -129 0
-29 -124 -34 -129 0
29 124 45 140 0
-29 124 -45 140 0
29 -124 45 -140 0
-29 -124 -45 -140 0
29 124 82 177 0
-29 124 -82 177 0
29 -124 82 -177 0
-29 -124 -82 -177 0
29 124 94 189 0
-29 124 -94 189 0
29 -124 94 -189 0
-29 -124 -94 -189 0
30 125 75 170 0
-30 125 -75 170 0
30 -125 75 -170 0
-30 -125 -75 -170 0
30 125 79 174 0
-30 125 -79 174 0
30 -125 79 -174 0
-30 -125 -79 -174 0
30 125 38 133 0
-30 125 -38 133 0
30 -125 38 -133 0
-30 -125 -38 -133 0
30 125 33 128 0
-30 125 -33 128 0
30 -125 33 -128 0
-30 -125 -33 -128 0
31 126 81 176 0
-31 126 -81 176 0
31 -126 81 -176 0
-31 -126 -81 -176 0
31 126 49 144 0
-31 126 -49 144 0
31 -126 49 -144 0
-31 -126 -49 -144 0
31 126 73 168 0
-31 126 -73 168 0
31 -126 73 -168 0
-31 -126 -73 -168 0
31 126 89 184 0
-31 126 -89 184 0
31 -126 89 -184 0
-31 -126 -89 -184 0
31 126 62 157 0
-31 126 -62 157 0
31 -126 62 -157 0
-31 -126 -62 -157 0
31 126 94 189 0
-31 126 -94 189 0
31 -126 94 -189 0
-31 -126 -94 -189 0
31 126 84 179 0
-31 126 -84 179 0
31 -126 84 -179 0
-31 -126 -84 -179 0
31 126 34 129 0
-31 126 -34 129 0
31 -126 34 -129 0
-31 -126 -34 -129 0
32 127 54 149 0
-32 127 -54 149 0
32 -127 54 -149 0
-32 -127 -54 -149 0
32 127 41 136 0
-32 127 -41 136 0
32 -127 41 -136 0
-32 -127 -41 -136 0
32 127 59 154 0
-32 127 -59 154 0
32 -127 59 -154 0
-32 -127 -59 -154 0
32 127 59 154 0
-32 127 -59 154 0
32 -127 59 -154 0
-32 -127 -59 -154 0
32 127 56 151 0
-32 127 -56 151 0
32 -127 56 -151 0
-32 -127 -56 -151 0
33 128 71 166 0
-33 128 -71 166 0
33 -128 71 -166 0
-33 -128 -71 -166 0
33 128 44 139 0
-33 128 -44 139 0
33 -128 44 -139 0
-33 -128 -44 -139 0
33 128 86 181 0
-33 128 -86 181 0
33 -128 86 -181 0
-33 -128 -86 -181 0
34 129 67 162 0
-34 129 -67 162 0
34 -129 67 -162 0
-34 -129 -67 -162 0
34 129 83 178 0
-34 129 -83 178 0
34 -129 83 -178 0
-34 -129 -83 -178 0
34 129 93 188 0
-34 129 -93 188 0
34 -129 93 -188 0
-34 -129 -93 -188 0
34 129 80 175 0
-34 129 -80 175 0
34 -129 80 -175 0
-34 -129 -80 -175 0
35 130 38 133 0
-35 130 -38 133 0
35 -130 38 -133 0
-35 -130 -38 -133 0
35 130 56 151 0
-35 130 -56 151 0
35 -130 56 -151 0
-35 -130 -56 -151 0
35 130 41 136 0
-35 130 -41 136 0
35 -130 41 -136 0
-35 -130 -41 -136 0
35 130 86 181 0
-35 130 -86 181 0
35 -130 86 -181 0
-35 -130 -86 -181 0
35 130 85 180 0
-35 130 -85 180 0
35 -130 85 -180 0
-35 -130 -85 -180 0
36 131 63 158 0
-36 131 -63 158 0
36 -131 63 -158 0
-36 -131 -63 -158 0
36 131 64 159 0
-36 131 -64 159 0
36 -131 64 -159 0
-36 -131 -64 -159 0
36 131 46 141 0
-36 131 -46 141 0
36 -131 46 -141 0
-36 -131 -46 -141 0
36 131 91 186 0
-36 131 -91 186 0
36 -131 91 -186 0
-36 -131 -91 -186 0
36 131 78 173 0
-36 131 -78 173 0
36 -131 78 -173 0
-36 -131 -78 -173 0
37 132 63 158 0
-37 132 -63 158 0
37 -132 63 -158 0
-37 -132 -63 -158 0
37 132 72 167 0
-37 132 -72 167 0
37 -132 72 -167 0
-37 -132 -72 -167 0
37 132 65 160 0
-37 132 -65 160 0
37 -132 65 -160 0
-37 -132 -65 -160 0
37 132 62 157 0
-37 132 -62 157 0
37 -132 62 -157 0
-37 -132 -62 -157 0
37 132 58 153 0
-37 132 -58 153 0
37 -132 58 -153 0
-37 -132 -58 -153 0
38 133 69 164 0
-38 133 -69 164 0
38 -133 69 -164 0
-38 -133 -69 -164 0
38 133 85 180 0
-38 133 -85 180 0
38 -133 85 -180 0
-38 -133 -85 -180 0
38 133 93 188 0
-38 133 -93 188 0
38 -133 93 -188 0
-38 -133 -93 -188 0
38 133 66 161 0
-38 133 -66 161 0
38 -133 66 -161 0
-38 -133 -66 -161 0
39 134 68 163 0
-39 134 -68 163 0
39 -134 68 -163 0
-39 -134 -68 -163 0
39 134 48 143 0
-39 134 -48 143 0
39 -134 48 -143 0
-39 -134 -48 -143 0
39 134 73 168 0
-39 134 -73 168 0
39 -134 73 -168 0
-39 -134 -73 -168 0
39 134 48 143 0
-39 134 -48 143 0
39 -134 48 -143 0
-39 -134 -48 -143 0
39 134 92 187 0
-39 134 -92 187 0
39 -134 92 -187 0
-39 -134 -92 -187 0
39 134 40 135 0
-39 134 -40 135 0
39 -134 40 -135 0
-39 -134 -40 -135 0
40 135 65 160 0
-40 135 -65 160 0
40 -135 65 -160 0
-40 -135 -65 -160 0
40 135 42 137 0
-40 135 -42 137 0
40 -135 42 -137 0
-40 -135 -42 -137 0
40 135 58 153 0
-40 135 -58 153 0
40 -135 58 -153 0
-40 -135 -58 -153 0
40 135 86 181 0
-40 135 -86 181 0
40 -135 86 -181 0
-40 -135 -86 -181 0
40 135 67 162 0
-40 135 -67 162 0
40 -135 67 -162 0
-40 -135 -67 -162 0
40 135 61 156 0
-40 135 -61 156 0
40 -135 61 -156 0
-40 -135 -61 -156 0
40 135 78 173 0
-40 135 -78 173 0
40 -135 78 -173 0
-40 -135 -78 -173 0
41 136 88 183 0
-41 136 -88 183 0
41 -136 88 -183 0
-41 -136 -88 -183 0
41 136 82 177 0
-41 136 -82 177 0
41 -136 82 -177 0
-41 -136 -82 -177 0
41 136 95 190 0
-41 136 -95 190 0
41 -136 95 -190 0
-41 -136 -95 -190 0
41 136 50 145 0
-41 136 -50 145 0
41 -136 50 -145 0
-41 -136 -50 -145 0
42 137 95 190 0
-42 137 -95 190 0
42 -137 95 -190 0
-42 -137 -95 -190 0
42 137 64 159 0
-42 137 -64 159 0
42 -137 64 -159 0
-42 -137 -64 -159 0
42 137 66 161 0
-42 137 -66 161 0
42 -137 66 -161 0
-42 -137 -66 -161 0
42 137 74 169 0
-42 137 -74 169 0
42 -137 74 -169 0
-42 -137 -74 -169 0
42 137 56 151 0
-42 137 -56 151 0
42 -137 56 -151 0
-42 -137 -56 -151 0
43 138 74 169 0
-43 138 -74 169 0
43 -138 74 -169 0
-43 -138 -74 -169 0
43 138 71 166 0
-43 138 -71 166 0
43 -138 71 -166 0
-43 -138 -71 -166 0
43 138 49 144 0
-43 138 -49 144 0
43 -138 49 -144 0
-43 -138 -49 -144 0
43 138 64 159 0
-43 138 -64 159 0
43 -138 64 -159 0
-43 -138 -64 -159 0
44 139 61 156 0
-44 139 -61 156 0
44 -139 61 -156 0
-44 -139 -61 -156 0
44 139 87 182 0
-44 139 -87 182 0
44 -139 87 -182 0
-44 -139 -87 -182 0
44 139 78 173 0
-44 139 -78 173 0
44 -139 78 -173 0
-44 -139 -78 -173 0
44 139 89 184 0
-44 139 -89 184 0
44 -139 89 -184 0
-44 -139 -89 -184 0
45 140 50 145 0
-45 140 -50 145 0
45 -140 50 -145 0
-45 -140 -50 -145 0
45 140 82 177 0
-45 140 -82 177 0
45 -140 82 -177 0
-45 -140 -82 -177 0
45 140 92 187 0
-45 140 -92 187 0
45 -140 92 -187 0
-45 -140 -92 -187 0
45 140 52 147 0
-45 140 -52 147 0
45 -140 52 -147 0
-45 -140 -52 -147 0
45 140 79 174 0
-45 140 -79 174 0
45 -140 79 -174 0
-45 -140 -79 -174 0
45 140 73 168 0
-45 140 -73 168 0
45 -140 73 -168 0
-45 -140 -73 -168 0
46 141 84 179 0
-46 141 -84 179 0
46 -141 84 -179 0
-46 -141 -84 -179 0
46 141 80 175 0
-46 141 -80 175 0
46 -141 80 -175 0
-46 -141 -80 -175 0
46 141 71 166 0
-46 141 -71 166 0
46 -141 71 -166 0
-46 -141 -71 -166 0
46 141 67 162 0
-46 141 -67 162 0
46 -141 67 -162 0
-46 -141 -67 -162 0
46 141 76 171 0
-46 141 -76 171 0
46 -141 76 -171 0
-46 -141 -76 -171 0
46 141 70 165 0
-46 141 -70 165 0
46 -141 70 -165 0
-46 -141 -70 -165 0
47 142 56 151 0
-47 142 -56 151 0
47 -142 56 -151 0
-47 -142 -56 -151 0
47 142 67 162 0
-47 142 -67 162 0
47 -142 67 -162 0
-47 -142 -67 -162 0
47 142 71 166 0
-47 142 -71 166 0
47 -142 71 -166 0
-47 -142 -71 -166 0
47 142 87 182 0
-47 142 -87 182 0
47 -142 87 -182 0
-47 -142 -87 -182 0
47 142 88 183 0
-47 142 -88 183 0
47 -142 88 -183 0
-47 -142 -88 -183 0
47 142 58 153 0
-47 142 -58 153 0
47 -142 58 -153 0
-47 -142 -58 -153 0
48 143 61 156 0
-48 143 -61 156 0
48 -143 61 -156 0
-48 -143 -61 -156 0
48 143 69 164 0
-48 143 -69 164 0
48 -143 69 -164 0
-48 -143 -69 -164 0
48 143 64 159 0
-48 143 -64 159 0
48 -143 64 -159 0
-48 -143 -64 -159 0
48 143 94 189 0
-48 143 -94 189 0
48 -143 94 -189 0
-48 -143 -94 -189 0
48 143 86 181 0
-48 143 -86 181 0
48 -143 86 -181 0
-48 -143 -86 -181 0
49 144 85 180 0
-49 144 -85 180 0
49 -144 85 -180 0
-49 -144 -85 -180 0
49 144 83 178 0
-49 144 -83 178 0
49 -144 83 -178 0
-49 -144 -83 -178 0
49 144 58 153 0
-49 144 -58 153 0
49 -144 58 -153 0
-49 -144 -58 -153 0
49 144 82 177 0
-49 144 -82 177 0
49 -144 82 -177 0
-49 -144 -82 -177 0
49 144 77 172 0
-49 144 -77 172 0
49 -144 77 -172 0
-49 -144 -77 -172 0
49 144 78 173 0
-49 144 -78 173 0
49 -144 78 -173 0
-49 -144 -78 -173 0
50 145 65 160 0
-50 145 -65 160 0
50 -145 65 -160 0
-50 -145 -65 -160 0
50 145 57 152 0
-50 145 -57 152 0
50 -145 57 -152 0
-50 -145 -57 -152 0
50 145 64 159 0
-50 145 -64 159 0
50 -145 64 -159 0
-50 -145 -64 -159 0
50 145 60 155 0
-50 145 -60 155 0
50 -145 60 -155 0
-50 -145 -60 -155 0
50 145 95 190 0
-50 145 -95 190 0
50 -145 95 -190 0
-50 -145 -95 -190 0
51 146 71 166 0
-51 146 -71 166 0
51 -146 71 -166 0
-51 -146 -71 -166 0
51 146 70 165 0
-51 146 -70 165 0
51 -146 70 -165 0
-51 -146 -70 -165 0
51 146 53 148 0
-51 146 -53 148 0
51 -146 53 -148 0
-51 -146 -53 -148 0
51 146 80 175 0
-51 146 -80 175 0
51 -146 80 -175 0
-51 -146 -80 -175 0
51 146 87 182 0
-51 146 -87 182 0
51 -146 87 -182 0
-51 -146 -87 -182 0
51 146 91 186 0
-51 146 -91 186 0
51 -146 91 -186 0
-51 -146 -91 -186 0
52 147 90 185 0
-52 147 -90 185 0
52 -147 90 -185 0
-52 -147 -90 -185 0
52 147 86 181 0
-52 147 -86 181 0
52 -147 86 -181 0
-52 -147 -86 -181 0
52 147 54 149 0
-52 147 -54 149 0
52 -147 54 -149 0
-52 -147 -54 -149 0
53 148 74 169 0
-53 148 -74 169 0
53 -148 74 -169 0
-53 -148 -74 -169 0
53 148 60 155 0
-53 148 -60 155 0
53 -148 60 -155 0
-53 -148 -60 -155 0
53 148 79 174 0
-53 148 -79 174 0
53 -148 79 -174 0
-53 -148 -79 -174 0
53 148 76 171 0
-53 148 -76 171 0
53 -148 76 -171 0
-53 -148 -76 -171 0
54 149 55 150 0
-54 149 -55 150 0
54 -149 55 -150 0
-54 -149 -55 -150 0
54 149 80 175 0
-54 149 -80 175 0
54 -149 80 -175 0
-54 -149 -80 -175 0
54 149 94 189 0
-54 149 -94 189 0
54 -149 94 -189 0
-54 -149 -94 -189 0
54 149 72 167 0
-54 149 -72 167 0
54 -149 72 -167 0
-54 -149 -72 -167 0
55 150 70 165 0
-55 150 -70 165 0
55 -150 70 -165 0
-55 -150 -70 -165 0
55 150 89 184 0
-55 150 -89 184 0
55 -150 89 -184 0
-55 -150 -89 -184 0
55 150 80 175 0
-55 150 -80 175 0
55 -150 80 -175 0
-55 -150 -80 -175 0
55 150 70 165 0
-55 150 -70 165 0
55 -150 70 -165 0
-55 -150 -70 -165 0
56 151 77 172 0
-56 151 -77 172 0
56 -151 77 -172 0
-56 -151 -77 -172 0
56 151 81 176 0
-56 151 -81 176 0
56 -151 81 -176 0
-56 -151 -81 -176 0
57 152 82 177 0
-57 152 -82 177 0
57 -152 82 -177 0
-57 -152 -82 -177 0
57 152 61 156 0
-57 152 -61 156 0
57 -152 61 -156 0
-57 -152 -61 -156 0
57 152 71 166 0
-57 152 -71 166 0
57 -152 71 -166 0
-57 -152 -71 -166 0
57 152 72 167 0
-57 152 -72 167 0
57 -152 72 -167 0
-57 -152 -72 -167 0
58 153 59 154 0
-58 153 -59 154 0
58 -153 59 -154 0
-58 -153 -59 -154 0
58 153 78 173 0
-58 153 -78 173 0
58 -153 78 -173 0
-58 -153 -78 -173 0
58 153 94 189 0
-58 153 -94 189 0
58 -153 94 -189 0
-58 -153 -94 -189 0
59 154 70 165 0
-59 154 -70 165 0
59 -154 70 -165 0
-59 -154 -70 -165 0
59 154 75 170 0
-59 154 -75 170 0
59 -154 75 -170 0
-59 -154 -75 -170 0
59 154 92 187 0
-59 154 -92 187 0
59 -154 92 -187 0
-59 -154 -92 -187 0
59 154 93 188 0
-59 154 -93 188 0
59 -154 93 -188 0
-59 -154 -93 -188 0
60 155 73 168 0
-60 155 -73 168 0
60 -155 73 -168 0
-60 -155 -73 -168 0
60 155 73 168 0
-60 155 -73 168 0
60 -155 73 -168 0
-60 -155 -73 -168 0
60 155 83 178 0
-60 155 -83 178 0
60 -155 83 -178 0
-60 -155 -83 -178 0
60 155 73 168 0
-60 155 -73 168 0
60 -155 73 -168 0
-60 -155 -73 -168 0
61 156 95 190 0
-61 156 -95 190 0
61 -156 95 -190 0
-61 -156 -95 -190 0
62 157 76 171 0
-62 157 -76 171 0
62 -157 76 -171 0
-62 -157 -76 -171 0
62 157 63 158 0
-62 157 -63 158 0
62 -157 63 -158 0
-62 -157 -63 -158 0
62 157 84 179 0
-62 157 -84 179 0
62 -157 84 -179 0
-62 -157 -84 -179 0
62 157 86 181 0
-62 157 -86 181 0
62 -157 86 -181 0
-62 -157 -86 -181 0
62 157 75 170 0
-62 157 -75 170 0
62 -157 75 -170 0
-62 -157 -75 -170 0
63 158 84 179 0
-63 158 -84 179 0
63 -158 84 -179 0
-63 -158 -84 -179 0
64 159 66 161 0
-64 159 -66 161 0
64 -159 66 -161 0
-64 -159 -66 -161 0
65 160 71 166 0
-65 160 -71 166 0
65 -160 71 -166 0
-65 -160 -71 -166 0
65 160 66 161 0
-65 160 -66 161 0
65 -160 66 -161 0
-65 -160 -66 -161 0
66 161 72 167 0
-66 161 -72 167 0
66 -161 72 -167 0
-66 -161 -72 -167 0
66 161 68 163 0
-66 161 -68 163 0
66 -161 68 -163 0
-66 -161 -68 -163 0
66 161 94 189 0
-66 161 -94 189 0
66 -161 94 -189 0
-66 -161 -94 -189 0
67 162 88 183 0
-67 162 -88 183 0
67 -162 88 -183 0
-67 -162 -88 -183 0
67 162 68 163 0
-67 162 -68 163 0
67 -162 68 -163 0
-67 -162 -68 -163 0
67 162 88 183 0
-67 162 -88 183 0
67 -162 88 -183 0
-67 -162 -88 -183 0
68 163 81 176 0
-68 163 -81 176 0
68 -163 81 -176 0
-68 -163 -81 -176 0
69 164 93 188 0
-69 164 -93 188 0
69 -164 93 -188 0
-69 -164 -93 -188 0
69 164 94 189 0
-69 164 -94 189 0
69 -164 94 -189 0
-69 -164 -94 -189 0
69 164 81 176 0
-69 164 -81 176 0
69 -164 81 -176 0
-69 -164 -81 -176 0
70 165 76 171 0
-70 165 -76 171 0
70 -165 76 -171 0
-70 -165 -76 -171 0
72 167 80 175 0
-72 167 -80 175 0
72 -167 80 -175 0
-72 -167 -80 -175 0
72 167 88 183 0
-72 167 -88 183 0
72 -167 88 -183 0
-72 -167 -88 -183 0
73 168 93 188 0
-73 168 -93 188 0
73 -168 93 -188 0
-73 -168 -93 -188 0
73 168 78 173 0
-73 168 -78 173 0
73 -168 78 -173 0
-73 -168 -78 -173 0
74 169 95 190 0
-74 169 -95 190 0
74 -169 95 -190 0
-74 -169 -95 -190 0
74 169 84 179 0
-74 169 -84 179 0
74 -169 84 -179 0
-74 -169 -84 -179 0
74 169 89 184 0
-74 169 -89 184 0
74 -169 89 -184 0
-74 -169 -89 -184 0
75 170 90 185 0
-75 170 -90 185 0
75 -170 90 -185 0
-75 -170 -90 -185 0
76 171 83 178 0
-76 171 -83 178 0
76 -171 83 -178 0
-76 -171 -83 -178 0
77 172 83 178 0
-77 172 -83 178 0
77 -172 83 -178 0
-77 -172 -83 -178 0
77 172 92 187 0
-77 172 -92 187 0
77 -172 92 -187 0
-77 -172 -92 -187 0
78 173 85 180 0
-78 173 -85 180 0
78 -173 85 -180 0
-78 -173 -85 -180 0
79 174 95 190 0
-79 174 -95 190 0
79 -174 95 -190 0
-79 -174 -95 -190 0
81 176 92 187 0
-81 176 -92 187 0
81 -176 92 -187 0
-81 -176 -92 -187 0
82 177 83 178 0
-82 177 -83 178 0
82 -177 83 -178 0
-82 -177 -83 -178 0
87 182 91 186 0
-87 182 -91 186 0
87 -182 91 -186 0
-87 -182 -91 -186 0
87 182 88 183 0
-87 182 -88 183 0
87 -182 88 -183 0
-87 -182 -88 -183 0
88 183 94 189 0
-88 183 -94 189 0
88 -183 94 -189 0
-88 -183 -94 -189 0
90 185 93 188 0
-90 185 -93 188 0
90 -185 93 -188 0
-90 -185 -93 -188 0
90 185 95 190 0
-90 185 -95 190 0
90 -185 95 -190 0
-90 -185 -95 -190 0
c p weight 133 0.29984927 0
c p weight -133 0.70015073 0
c p weight 136 0.59657262 0
c p weight -136 0.40342738 0
c p weight 145 0.62569996 0
c p weight -145 0.37430004 0
c p weight 26 0.55470089 0
c p weight -26 0.44529911 0
c p weight 31 0.64262679 0
c p weight -31 0.35737321 0
c p weight 32 0.64373243 0
c p weight -32 0.35626757 0
c p weight 33 0.46647875 0
c p weight -33 0.53352125 0
c p weight 160 0.55311150 0
c p weight -160 0.44688850 0
c p weight 163 0.31063357 0
c p weight -163 0.68936643 0
c p weight 168 0.61283471 0
c p weight -168 0.38716529 0
c p weight 41 0.22678666 0
c p weight -41 0.77321334 0
c p weight 42 0.43036165 0
c p weight -42 0.56963835 0
c p weight 47 0.58569701 0
c p weight -47 0.41430299 0
c p weight 184 0.23965093 0
c p weight -184 0.76034907 0
c p weight 57 0.61241580 0
c p weight -57 0.38758420 0
c p weight 185 0.38551320 0
c p weight -185 0.61448680 0
c p weight 186 0.53546577 0
c p weight -186 0.46453423 0
c p weight 190 0.27617980 0
c p weight -190 0.72382020 0
c p weight 73 0.24832055 0
c p weight -73 0.75167945 0
c p weight 75 0.44784570 0
c p weight -75 0.55215430 0
c p weight 78 0.67196853 0
c p weight -78 0.32803147 0
c p weight 80 0.41016279 0
c p weight -80 0.58983721 0
c p weight 90 0.75992198 0
c p weight -90 0.24007802 0
c p weight 96 0.54982934 0
c p weight -96 0.45017066 0
c p weight 99 0.35453909 0
c p weight -99 0.64546091 0
c p weight 102 0.20509318 0
c p weight -102 0.79490682 0
c p weight 104 0.59901376 0
c p weight -104 0.40098624 0
c p weight 110 0.79502404 0
c p weight -110 0.20497596 0
c p weight 115 0.76164623 0
c p weight -115 0.23835377 0
c p weight 122 0.68776885 0
c p weight -122 0.31223115 0
c p weight 124 0.65464596 0
c p weight -124 0.34535404 0
c p weight 125 0.71751919 0
c p weight -125 0.28248081 0
